dates = {'2022-01-12','2022-01-13','2022-01-14','2022-01-15','2022-01-16','2022-01-17','2022-01-18','2022-01-19','2022-01-20','2022-01-21','2022-01-22','2022-01-23','2022-01-24','2022-01-25','2022-01-26','2022-01-27','2022-01-28','2022-01-29','2022-01-30'};

daysOfWeek = [Wednesday,Thursday,Friday,Saturday,Sunday,Monday,Tuesday,Wednesday,Thursday,Friday,Saturday,Sunday,Monday,Tuesday,Wednesday,Thursday,Friday,Saturday,Sunday];

winter = false;

% For this week, how many people will be here.
numPeople = [162,162,162,162,162,162,162,162,162,163,162,162,162,167,164,167,164,164
,164];

% Physical workers need 50 to 100 % more nutrients per day.
numPhysicalWorkers = [56.5,56.5,56.5,56.5,56.5,56.5,56.5,56.5,56.5,56.5,56.5,56.5,56.5,57.5
,57.5,57.5,57.5,57.5,57.5];

% Males need +25% more nutrients per day.
numMen = [136,136,136,136,136,136,136,136,136,139,139,136,136,140,140,140,140,137
,137];

% Num people who do not eat categories. contains = {none, meat, milk, gluten, egg, nut, seed, sugars}
numRefusals = [| 0,11,0,11,15,0,13,0 | 0,11,0,11,15,0,13,0 | 0,11,0,11,15,0,13,0 | 0,11,0,11,15,0,13,0 | 0,11,0,11,15,0,13,0 | 0,11,0,11,15,0,13,0 | 0,11,0,11,15,0,13,0 | 0,11,0,11,15,0,13,0 | 0,11,0,11,15,0,13,0 | 0,0,6,0,2,6,9,1 | 0,6,8,1,0,0,2,12 | 0,6,8,1,0,0,2,12 | 0,6,8,1,0,0,2,12 | 0,7,0,8,9,0,10,2 | 0,0,2,10,3,5,2,2 | 0,6,6,6,0,2,0,0 | 0,8,0,6,0,0,17,0 | 0,8,0,6,0,0,17,0 | 0,8,0,6,0,0,17,0 |];

